c This is the enc1_simplified file generate by sty
p cnf 494 1704
 -1 2 0
 -2 1 0
 1 3 0
 -3 -1 0
 -4 -1 5 0
 -5 4 0
 -5 1 0
 -4 1 6 0
 -6 4 0
 -6 -1 0
 4 -1 7 0
 -7 -4 0
 -7 1 0
 4 1 8 0
 -8 -4 0
 -8 -1 0
 -9 -4 10 0
 -10 9 0
 -10 4 0
 -9 4 11 0
 -11 9 0
 -11 -4 0
 9 -4 12 0
 -12 -9 0
 -12 4 0
 9 4 13 0
 -13 -9 0
 -13 -4 0
 -14 -9 15 0
 -15 14 0
 -15 9 0
 -14 9 16 0
 -16 14 0
 -16 -9 0
 14 -9 17 0
 -17 -14 0
 -17 9 0
 14 9 18 0
 -18 -14 0
 -18 -9 0
 -19 -14 0
 19 14 0
 -20 -19 0
 20 19 0
 -21 -20 0
 21 20 0
 -22 -21 0
 22 21 0
 -23 -22 0
 23 22 0
 -24 -23 0
 24 23 0
 -25 1 0
 25 -1 0
 -26 25 -4 0
 -26 -25 4 0
 26 -25 -4 0
 26 25 4 0
 -27 -26 -9 0
 -27 -26 9 0
 27 26 -9 0
 27 26 9 0
 -28 27 -14 0
 28 -27 -14 0
 28 -27 14 0
 28 27 14 0
 -29 -28 -19 30 0
 -30 29 0
 -30 28 0
 -30 19 0
 -29 28 -19 31 0
 -31 29 0
 -31 -28 0
 -31 19 0
 -29 -28 19 32 0
 -32 29 0
 -32 28 0
 -32 -19 0
 -29 28 19 33 0
 -33 29 0
 -33 -28 0
 -33 -19 0
 29 -28 -19 34 0
 -34 -29 0
 -34 28 0
 -34 19 0
 29 28 -19 35 0
 -35 -29 0
 -35 -28 0
 -35 19 0
 29 -28 19 36 0
 -36 -29 0
 -36 28 0
 -36 -19 0
 29 28 19 37 0
 -37 -29 0
 -37 -28 0
 -37 -19 0
 -38 -29 -20 39 0
 -39 38 0
 -39 29 0
 -39 20 0
 -38 29 -20 40 0
 -40 38 0
 -40 -29 0
 -40 20 0
 -38 -29 20 41 0
 -41 38 0
 -41 29 0
 -41 -20 0
 -38 29 20 42 0
 -42 38 0
 -42 -29 0
 -42 -20 0
 38 -29 -20 43 0
 -43 -38 0
 -43 29 0
 -43 20 0
 38 29 -20 44 0
 -44 -38 0
 -44 -29 0
 -44 20 0
 38 -29 20 45 0
 -45 -38 0
 -45 29 0
 -45 -20 0
 38 29 20 46 0
 -46 -38 0
 -46 -29 0
 -46 -20 0
 -47 -38 -21 0
 -47 38 -21 0
 47 -38 21 0
 47 38 21 0
 -48 -47 -22 49 0
 -49 48 0
 -49 47 0
 -49 22 0
 -48 47 -22 50 0
 -50 48 0
 -50 -47 0
 -50 22 0
 -48 -47 22 51 0
 -51 48 0
 -51 47 0
 -51 -22 0
 -48 47 22 52 0
 -52 48 0
 -52 -47 0
 -52 -22 0
 48 -47 -22 53 0
 -53 -48 0
 -53 47 0
 -53 22 0
 48 47 -22 54 0
 -54 -48 0
 -54 -47 0
 -54 22 0
 48 -47 22 55 0
 -55 -48 0
 -55 47 0
 -55 -22 0
 48 47 22 56 0
 -56 -48 0
 -56 -47 0
 -56 -22 0
 -57 -48 -23 0
 57 48 -23 0
 57 -48 23 0
 57 48 23 0
 -58 -57 -24 59 0
 -59 58 0
 -59 57 0
 -59 24 0
 -58 57 -24 60 0
 -60 58 0
 -60 -57 0
 -60 24 0
 -58 -57 24 61 0
 -61 58 0
 -61 57 0
 -61 -24 0
 -58 57 24 62 0
 -62 58 0
 -62 -57 0
 -62 -24 0
 58 -57 -24 63 0
 -63 -58 0
 -63 57 0
 -63 24 0
 58 57 -24 64 0
 -64 -58 0
 -64 -57 0
 -64 24 0
 58 -57 24 65 0
 -65 -58 0
 -65 57 0
 -65 -24 0
 58 57 24 66 0
 -66 -58 0
 -66 -57 0
 -66 -24 0
 -67 25 0
 67 -25 0
 -68 -67 -26 69 0
 -69 68 0
 -69 67 0
 -69 26 0
 -68 67 -26 70 0
 -70 68 0
 -70 -67 0
 -70 26 0
 -68 -67 26 71 0
 -71 68 0
 -71 67 0
 -71 -26 0
 -68 67 26 72 0
 -72 68 0
 -72 -67 0
 -72 -26 0
 68 -67 -26 73 0
 -73 -68 0
 -73 67 0
 -73 26 0
 68 67 -26 74 0
 -74 -68 0
 -74 -67 0
 -74 26 0
 68 -67 26 75 0
 -75 -68 0
 -75 67 0
 -75 -26 0
 68 67 26 76 0
 -76 -68 0
 -76 -67 0
 -76 -26 0
 -77 -68 -27 0
 -77 68 -27 0
 -77 -68 27 0
 77 68 27 0
 -78 -77 -28 79 0
 -79 78 0
 -79 77 0
 -79 28 0
 -78 77 -28 80 0
 -80 78 0
 -80 -77 0
 -80 28 0
 -78 -77 28 81 0
 -81 78 0
 -81 77 0
 -81 -28 0
 -78 77 28 82 0
 -82 78 0
 -82 -77 0
 -82 -28 0
 78 -77 -28 83 0
 -83 -78 0
 -83 77 0
 -83 28 0
 78 77 -28 84 0
 -84 -78 0
 -84 -77 0
 -84 28 0
 78 -77 28 85 0
 -85 -78 0
 -85 77 0
 -85 -28 0
 78 77 28 86 0
 -86 -78 0
 -86 -77 0
 -86 -28 0
 -87 -78 -29 88 0
 -88 87 0
 -88 78 0
 -88 29 0
 -87 78 -29 89 0
 -89 87 0
 -89 -78 0
 -89 29 0
 -87 -78 29 90 0
 -90 87 0
 -90 78 0
 -90 -29 0
 -87 78 29 91 0
 -91 87 0
 -91 -78 0
 -91 -29 0
 87 -78 -29 92 0
 -92 -87 0
 -92 78 0
 -92 29 0
 87 78 -29 93 0
 -93 -87 0
 -93 -78 0
 -93 29 0
 87 -78 29 94 0
 -94 -87 0
 -94 78 0
 -94 -29 0
 87 78 29 95 0
 -95 -87 0
 -95 -78 0
 -95 -29 0
 -96 -87 -38 97 0
 -97 96 0
 -97 87 0
 -97 38 0
 -96 87 -38 98 0
 -98 96 0
 -98 -87 0
 -98 38 0
 -96 -87 38 99 0
 -99 96 0
 -99 87 0
 -99 -38 0
 -96 87 38 100 0
 -100 96 0
 -100 -87 0
 -100 -38 0
 96 -87 -38 101 0
 -101 -96 0
 -101 87 0
 -101 38 0
 96 87 -38 102 0
 -102 -96 0
 -102 -87 0
 -102 38 0
 96 -87 38 103 0
 -103 -96 0
 -103 87 0
 -103 -38 0
 96 87 38 104 0
 -104 -96 0
 -104 -87 0
 -104 -38 0
 -105 -96 -47 106 0
 -106 105 0
 -106 96 0
 -106 47 0
 -105 96 -47 107 0
 -107 105 0
 -107 -96 0
 -107 47 0
 -105 -96 47 108 0
 -108 105 0
 -108 96 0
 -108 -47 0
 -105 96 47 109 0
 -109 105 0
 -109 -96 0
 -109 -47 0
 105 -96 -47 110 0
 -110 -105 0
 -110 96 0
 -110 47 0
 105 96 -47 111 0
 -111 -105 0
 -111 -96 0
 -111 47 0
 105 -96 47 112 0
 -112 -105 0
 -112 96 0
 -112 -47 0
 105 96 47 113 0
 -113 -105 0
 -113 -96 0
 -113 -47 0
 -114 105 48 0
 114 -105 -48 0
 114 105 -48 0
 114 -105 48 0
 -115 -114 -57 116 0
 -116 115 0
 -116 114 0
 -116 57 0
 -115 114 -57 117 0
 -117 115 0
 -117 -114 0
 -117 57 0
 -115 -114 57 118 0
 -118 115 0
 -118 114 0
 -118 -57 0
 -115 114 57 119 0
 -119 115 0
 -119 -114 0
 -119 -57 0
 115 -114 -57 120 0
 -120 -115 0
 -120 114 0
 -120 57 0
 115 114 -57 121 0
 -121 -115 0
 -121 -114 0
 -121 57 0
 115 -114 57 122 0
 -122 -115 0
 -122 114 0
 -122 -57 0
 115 114 57 123 0
 -123 -115 0
 -123 -114 0
 -123 -57 0
 -124 -115 58 0
 124 -115 -58 0
 124 115 -58 0
 124 115 58 0
 -125 -67 126 0
 -126 125 0
 -126 67 0
 -125 67 127 0
 -127 125 0
 -127 -67 0
 125 -67 128 0
 -128 -125 0
 -128 67 0
 125 67 129 0
 -129 -125 0
 -129 -67 0
 -130 -125 -68 131 0
 -131 130 0
 -131 125 0
 -131 68 0
 -130 125 -68 132 0
 -132 130 0
 -132 -125 0
 -132 68 0
 -130 -125 68 133 0
 -133 130 0
 -133 125 0
 -133 -68 0
 -130 125 68 134 0
 -134 130 0
 -134 -125 0
 -134 -68 0
 130 -125 -68 135 0
 -135 -130 0
 -135 125 0
 -135 68 0
 130 125 -68 136 0
 -136 -130 0
 -136 -125 0
 -136 68 0
 130 -125 68 137 0
 -137 -130 0
 -137 125 0
 -137 -68 0
 130 125 68 138 0
 -138 -130 0
 -138 -125 0
 -138 -68 0
 -139 -130 77 0
 -139 130 77 0
 139 -130 -77 0
 139 130 -77 0
 -140 -139 78 0
 -140 139 78 0
 140 -139 -78 0
 140 139 -78 0
 -141 140 -87 0
 141 -140 -87 0
 141 -140 87 0
 141 140 87 0
 -142 -141 -96 143 0
 -143 142 0
 -143 141 0
 -143 96 0
 -142 141 -96 144 0
 -144 142 0
 -144 -141 0
 -144 96 0
 -142 -141 96 145 0
 -145 142 0
 -145 141 0
 -145 -96 0
 -142 141 96 146 0
 -146 142 0
 -146 -141 0
 -146 -96 0
 142 -141 -96 147 0
 -147 -142 0
 -147 141 0
 -147 96 0
 142 141 -96 148 0
 -148 -142 0
 -148 -141 0
 -148 96 0
 142 -141 96 149 0
 -149 -142 0
 -149 141 0
 -149 -96 0
 142 141 96 150 0
 -150 -142 0
 -150 -141 0
 -150 -96 0
 -151 -142 -105 152 0
 -152 151 0
 -152 142 0
 -152 105 0
 -151 142 -105 153 0
 -153 151 0
 -153 -142 0
 -153 105 0
 -151 -142 105 154 0
 -154 151 0
 -154 142 0
 -154 -105 0
 -151 142 105 155 0
 -155 151 0
 -155 -142 0
 -155 -105 0
 151 -142 -105 156 0
 -156 -151 0
 -156 142 0
 -156 105 0
 151 142 -105 157 0
 -157 -151 0
 -157 -142 0
 -157 105 0
 151 -142 105 158 0
 -158 -151 0
 -158 142 0
 -158 -105 0
 151 142 105 159 0
 -159 -151 0
 -159 -142 0
 -159 -105 0
 -160 -151 114 0
 160 -151 -114 0
 160 151 -114 0
 160 151 114 0
 -161 -160 -115 162 0
 -162 161 0
 -162 160 0
 -162 115 0
 -161 160 -115 163 0
 -163 161 0
 -163 -160 0
 -163 115 0
 -161 -160 115 164 0
 -164 161 0
 -164 160 0
 -164 -115 0
 -161 160 115 165 0
 -165 161 0
 -165 -160 0
 -165 -115 0
 161 -160 -115 166 0
 -166 -161 0
 -166 160 0
 -166 115 0
 161 160 -115 167 0
 -167 -161 0
 -167 -160 0
 -167 115 0
 161 -160 115 168 0
 -168 -161 0
 -168 160 0
 -168 -115 0
 161 160 115 169 0
 -169 -161 0
 -169 -160 0
 -169 -115 0
 -170 -161 124 0
 -170 161 124 0
 170 -161 -124 0
 170 161 -124 0
 -171 125 0
 171 -125 0
 -172 -171 -130 0
 -172 171 -130 0
 172 -171 130 0
 172 171 130 0
 -173 -172 -139 0
 -173 -172 139 0
 173 172 -139 0
 173 172 139 0
 -174 -173 -140 175 0
 -175 174 0
 -175 173 0
 -175 140 0
 -174 173 -140 176 0
 -176 174 0
 -176 -173 0
 -176 140 0
 -174 -173 140 177 0
 -177 174 0
 -177 173 0
 -177 -140 0
 -174 173 140 178 0
 -178 174 0
 -178 -173 0
 -178 -140 0
 174 -173 -140 179 0
 -179 -174 0
 -179 173 0
 -179 140 0
 174 173 -140 180 0
 -180 -174 0
 -180 -173 0
 -180 140 0
 174 -173 140 181 0
 -181 -174 0
 -181 173 0
 -181 -140 0
 174 173 140 182 0
 -182 -174 0
 -182 -173 0
 -182 -140 0
 -183 -174 -141 184 0
 -184 183 0
 -184 174 0
 -184 141 0
 -183 174 -141 185 0
 -185 183 0
 -185 -174 0
 -185 141 0
 -183 -174 141 186 0
 -186 183 0
 -186 174 0
 -186 -141 0
 -183 174 141 187 0
 -187 183 0
 -187 -174 0
 -187 -141 0
 183 -174 -141 188 0
 -188 -183 0
 -188 174 0
 -188 141 0
 183 174 -141 189 0
 -189 -183 0
 -189 -174 0
 -189 141 0
 183 -174 141 190 0
 -190 -183 0
 -190 174 0
 -190 -141 0
 183 174 141 191 0
 -191 -183 0
 -191 -174 0
 -191 -141 0
 -192 -183 -142 193 0
 -193 192 0
 -193 183 0
 -193 142 0
 -192 183 -142 194 0
 -194 192 0
 -194 -183 0
 -194 142 0
 -192 -183 142 195 0
 -195 192 0
 -195 183 0
 -195 -142 0
 -192 183 142 196 0
 -196 192 0
 -196 -183 0
 -196 -142 0
 192 -183 -142 197 0
 -197 -192 0
 -197 183 0
 -197 142 0
 192 183 -142 198 0
 -198 -192 0
 -198 -183 0
 -198 142 0
 192 -183 142 199 0
 -199 -192 0
 -199 183 0
 -199 -142 0
 192 183 142 200 0
 -200 -192 0
 -200 -183 0
 -200 -142 0
 -201 -192 -151 202 0
 -202 201 0
 -202 192 0
 -202 151 0
 -201 192 -151 203 0
 -203 201 0
 -203 -192 0
 -203 151 0
 -201 -192 151 204 0
 -204 201 0
 -204 192 0
 -204 -151 0
 -201 192 151 205 0
 -205 201 0
 -205 -192 0
 -205 -151 0
 201 -192 -151 206 0
 -206 -201 0
 -206 192 0
 -206 151 0
 201 192 -151 207 0
 -207 -201 0
 -207 -192 0
 -207 151 0
 201 -192 151 208 0
 -208 -201 0
 -208 192 0
 -208 -151 0
 201 192 151 209 0
 -209 -201 0
 -209 -192 0
 -209 -151 0
 -210 -201 -160 211 0
 -211 210 0
 -211 201 0
 -211 160 0
 -210 201 -160 212 0
 -212 210 0
 -212 -201 0
 -212 160 0
 -210 -201 160 213 0
 -213 210 0
 -213 201 0
 -213 -160 0
 -210 201 160 214 0
 -214 210 0
 -214 -201 0
 -214 -160 0
 210 -201 -160 215 0
 -215 -210 0
 -215 201 0
 -215 160 0
 210 201 -160 216 0
 -216 -210 0
 -216 -201 0
 -216 160 0
 210 -201 160 217 0
 -217 -210 0
 -217 201 0
 -217 -160 0
 210 201 160 218 0
 -218 -210 0
 -218 -201 0
 -218 -160 0
 -219 210 -161 0
 -219 -210 161 0
 -219 210 161 0
 219 -210 -161 0
 -220 -219 -170 221 0
 -221 220 0
 -221 219 0
 -221 170 0
 -220 219 -170 222 0
 -222 220 0
 -222 -219 0
 -222 170 0
 -220 -219 170 223 0
 -223 220 0
 -223 219 0
 -223 -170 0
 -220 219 170 224 0
 -224 220 0
 -224 -219 0
 -224 -170 0
 220 -219 -170 225 0
 -225 -220 0
 -225 219 0
 -225 170 0
 220 219 -170 226 0
 -226 -220 0
 -226 -219 0
 -226 170 0
 220 -219 170 227 0
 -227 -220 0
 -227 219 0
 -227 -170 0
 220 219 170 228 0
 -228 -220 0
 -228 -219 0
 -228 -170 0
 -229 -171 230 0
 -230 229 0
 -230 171 0
 -229 171 231 0
 -231 229 0
 -231 -171 0
 229 -171 232 0
 -232 -229 0
 -232 171 0
 229 171 233 0
 -233 -229 0
 -233 -171 0
 -234 -229 -172 235 0
 -235 234 0
 -235 229 0
 -235 172 0
 -234 229 -172 236 0
 -236 234 0
 -236 -229 0
 -236 172 0
 -234 -229 172 237 0
 -237 234 0
 -237 229 0
 -237 -172 0
 -234 229 172 238 0
 -238 234 0
 -238 -229 0
 -238 -172 0
 234 -229 -172 239 0
 -239 -234 0
 -239 229 0
 -239 172 0
 234 229 -172 240 0
 -240 -234 0
 -240 -229 0
 -240 172 0
 234 -229 172 241 0
 -241 -234 0
 -241 229 0
 -241 -172 0
 234 229 172 242 0
 -242 -234 0
 -242 -229 0
 -242 -172 0
 -243 234 173 0
 243 -234 -173 0
 243 234 -173 0
 243 -234 173 0
 -244 -243 -174 245 0
 -245 244 0
 -245 243 0
 -245 174 0
 -244 243 -174 246 0
 -246 244 0
 -246 -243 0
 -246 174 0
 -244 -243 174 247 0
 -247 244 0
 -247 243 0
 -247 -174 0
 -244 243 174 248 0
 -248 244 0
 -248 -243 0
 -248 -174 0
 244 -243 -174 249 0
 -249 -244 0
 -249 243 0
 -249 174 0
 244 243 -174 250 0
 -250 -244 0
 -250 -243 0
 -250 174 0
 244 -243 174 251 0
 -251 -244 0
 -251 243 0
 -251 -174 0
 244 243 174 252 0
 -252 -244 0
 -252 -243 0
 -252 -174 0
 -253 -244 -183 254 0
 -254 253 0
 -254 244 0
 -254 183 0
 -253 244 -183 255 0
 -255 253 0
 -255 -244 0
 -255 183 0
 -253 -244 183 256 0
 -256 253 0
 -256 244 0
 -256 -183 0
 -253 244 183 257 0
 -257 253 0
 -257 -244 0
 -257 -183 0
 253 -244 -183 258 0
 -258 -253 0
 -258 244 0
 -258 183 0
 253 244 -183 259 0
 -259 -253 0
 -259 -244 0
 -259 183 0
 253 -244 183 260 0
 -260 -253 0
 -260 244 0
 -260 -183 0
 253 244 183 261 0
 -261 -253 0
 -261 -244 0
 -261 -183 0
 -262 -253 -192 263 0
 -263 262 0
 -263 253 0
 -263 192 0
 -262 253 -192 264 0
 -264 262 0
 -264 -253 0
 -264 192 0
 -262 -253 192 265 0
 -265 262 0
 -265 253 0
 -265 -192 0
 -262 253 192 266 0
 -266 262 0
 -266 -253 0
 -266 -192 0
 262 -253 -192 267 0
 -267 -262 0
 -267 253 0
 -267 192 0
 262 253 -192 268 0
 -268 -262 0
 -268 -253 0
 -268 192 0
 262 -253 192 269 0
 -269 -262 0
 -269 253 0
 -269 -192 0
 262 253 192 270 0
 -270 -262 0
 -270 -253 0
 -270 -192 0
 -271 -262 201 0
 271 -262 -201 0
 271 262 -201 0
 271 262 201 0
 -272 -271 -210 273 0
 -273 272 0
 -273 271 0
 -273 210 0
 -272 271 -210 274 0
 -274 272 0
 -274 -271 0
 -274 210 0
 -272 -271 210 275 0
 -275 272 0
 -275 271 0
 -275 -210 0
 -272 271 210 276 0
 -276 272 0
 -276 -271 0
 -276 -210 0
 272 -271 -210 277 0
 -277 -272 0
 -277 271 0
 -277 210 0
 272 271 -210 278 0
 -278 -272 0
 -278 -271 0
 -278 210 0
 272 -271 210 279 0
 -279 -272 0
 -279 271 0
 -279 -210 0
 272 271 210 280 0
 -280 -272 0
 -280 -271 0
 -280 -210 0
 -281 -272 -219 282 0
 -282 281 0
 -282 272 0
 -282 219 0
 -281 272 -219 283 0
 -283 281 0
 -283 -272 0
 -283 219 0
 -281 -272 219 284 0
 -284 281 0
 -284 272 0
 -284 -219 0
 -281 272 219 285 0
 -285 281 0
 -285 -272 0
 -285 -219 0
 281 -272 -219 286 0
 -286 -281 0
 -286 272 0
 -286 219 0
 281 272 -219 287 0
 -287 -281 0
 -287 -272 0
 -287 219 0
 281 -272 219 288 0
 -288 -281 0
 -288 272 0
 -288 -219 0
 281 272 219 289 0
 -289 -281 0
 -289 -272 0
 -289 -219 0
 -290 281 -220 0
 -290 -281 220 0
 -290 281 220 0
 290 -281 -220 0
 -291 -229 292 0
 -292 291 0
 -292 229 0
 -291 229 293 0
 -293 291 0
 -293 -229 0
 291 -229 294 0
 -294 -291 0
 -294 229 0
 291 229 295 0
 -295 -291 0
 -295 -229 0
 -296 -291 -234 297 0
 -297 296 0
 -297 291 0
 -297 234 0
 -296 291 -234 298 0
 -298 296 0
 -298 -291 0
 -298 234 0
 -296 -291 234 299 0
 -299 296 0
 -299 291 0
 -299 -234 0
 -296 291 234 300 0
 -300 296 0
 -300 -291 0
 -300 -234 0
 296 -291 -234 301 0
 -301 -296 0
 -301 291 0
 -301 234 0
 296 291 -234 302 0
 -302 -296 0
 -302 -291 0
 -302 234 0
 296 -291 234 303 0
 -303 -296 0
 -303 291 0
 -303 -234 0
 296 291 234 304 0
 -304 -296 0
 -304 -291 0
 -304 -234 0
 -305 -296 -243 306 0
 -306 305 0
 -306 296 0
 -306 243 0
 -305 296 -243 307 0
 -307 305 0
 -307 -296 0
 -307 243 0
 -305 -296 243 308 0
 -308 305 0
 -308 296 0
 -308 -243 0
 -305 296 243 309 0
 -309 305 0
 -309 -296 0
 -309 -243 0
 305 -296 -243 310 0
 -310 -305 0
 -310 296 0
 -310 243 0
 305 296 -243 311 0
 -311 -305 0
 -311 -296 0
 -311 243 0
 305 -296 243 312 0
 -312 -305 0
 -312 296 0
 -312 -243 0
 305 296 243 313 0
 -313 -305 0
 -313 -296 0
 -313 -243 0
 -314 305 -244 0
 -314 305 244 0
 314 -305 -244 0
 314 -305 244 0
 -315 -314 -253 316 0
 -316 315 0
 -316 314 0
 -316 253 0
 -315 314 -253 317 0
 -317 315 0
 -317 -314 0
 -317 253 0
 -315 -314 253 318 0
 -318 315 0
 -318 314 0
 -318 -253 0
 -315 314 253 319 0
 -319 315 0
 -319 -314 0
 -319 -253 0
 315 -314 -253 320 0
 -320 -315 0
 -320 314 0
 -320 253 0
 315 314 -253 321 0
 -321 -315 0
 -321 -314 0
 -321 253 0
 315 -314 253 322 0
 -322 -315 0
 -322 314 0
 -322 -253 0
 315 314 253 323 0
 -323 -315 0
 -323 -314 0
 -323 -253 0
 -324 -315 -262 325 0
 -325 324 0
 -325 315 0
 -325 262 0
 -324 315 -262 326 0
 -326 324 0
 -326 -315 0
 -326 262 0
 -324 -315 262 327 0
 -327 324 0
 -327 315 0
 -327 -262 0
 -324 315 262 328 0
 -328 324 0
 -328 -315 0
 -328 -262 0
 324 -315 -262 329 0
 -329 -324 0
 -329 315 0
 -329 262 0
 324 315 -262 330 0
 -330 -324 0
 -330 -315 0
 -330 262 0
 324 -315 262 331 0
 -331 -324 0
 -331 315 0
 -331 -262 0
 324 315 262 332 0
 -332 -324 0
 -332 -315 0
 -332 -262 0
 -333 -324 271 0
 333 -324 -271 0
 333 324 -271 0
 333 324 271 0
 -334 -333 -272 335 0
 -335 334 0
 -335 333 0
 -335 272 0
 -334 333 -272 336 0
 -336 334 0
 -336 -333 0
 -336 272 0
 -334 -333 272 337 0
 -337 334 0
 -337 333 0
 -337 -272 0
 -334 333 272 338 0
 -338 334 0
 -338 -333 0
 -338 -272 0
 334 -333 -272 339 0
 -339 -334 0
 -339 333 0
 -339 272 0
 334 333 -272 340 0
 -340 -334 0
 -340 -333 0
 -340 272 0
 334 -333 272 341 0
 -341 -334 0
 -341 333 0
 -341 -272 0
 334 333 272 342 0
 -342 -334 0
 -342 -333 0
 -342 -272 0
 -343 -334 -281 344 0
 -344 343 0
 -344 334 0
 -344 281 0
 -343 334 -281 345 0
 -345 343 0
 -345 -334 0
 -345 281 0
 -343 -334 281 346 0
 -346 343 0
 -346 334 0
 -346 -281 0
 -343 334 281 347 0
 -347 343 0
 -347 -334 0
 -347 -281 0
 343 -334 -281 348 0
 -348 -343 0
 -348 334 0
 -348 281 0
 343 334 -281 349 0
 -349 -343 0
 -349 -334 0
 -349 281 0
 343 -334 281 350 0
 -350 -343 0
 -350 334 0
 -350 -281 0
 343 334 281 351 0
 -351 -343 0
 -351 -334 0
 -351 -281 0
 -352 -343 -290 353 0
 -353 352 0
 -353 343 0
 -353 290 0
 -352 343 -290 354 0
 -354 352 0
 -354 -343 0
 -354 290 0
 -352 -343 290 355 0
 -355 352 0
 -355 343 0
 -355 -290 0
 -352 343 290 356 0
 -356 352 0
 -356 -343 0
 -356 -290 0
 352 -343 -290 357 0
 -357 -352 0
 -357 343 0
 -357 290 0
 352 343 -290 358 0
 -358 -352 0
 -358 -343 0
 -358 290 0
 352 -343 290 359 0
 -359 -352 0
 -359 343 0
 -359 -290 0
 352 343 290 360 0
 -360 -352 0
 -360 -343 0
 -360 -290 0
 -361 -291 362 0
 -362 361 0
 -362 291 0
 -361 291 363 0
 -363 361 0
 -363 -291 0
 361 -291 364 0
 -364 -361 0
 -364 291 0
 361 291 365 0
 -365 -361 0
 -365 -291 0
 -366 -361 -296 0
 -366 361 -296 0
 -366 -361 296 0
 366 361 296 0
 -367 -366 -305 368 0
 -368 367 0
 -368 366 0
 -368 305 0
 -367 366 -305 369 0
 -369 367 0
 -369 -366 0
 -369 305 0
 -367 -366 305 370 0
 -370 367 0
 -370 366 0
 -370 -305 0
 -367 366 305 371 0
 -371 367 0
 -371 -366 0
 -371 -305 0
 367 -366 -305 372 0
 -372 -367 0
 -372 366 0
 -372 305 0
 367 366 -305 373 0
 -373 -367 0
 -373 -366 0
 -373 305 0
 367 -366 305 374 0
 -374 -367 0
 -374 366 0
 -374 -305 0
 367 366 305 375 0
 -375 -367 0
 -375 -366 0
 -375 -305 0
 -376 -367 -314 0
 -376 -367 314 0
 -376 367 314 0
 376 367 -314 0
 -377 376 -315 0
 -377 -376 315 0
 377 -376 -315 0
 377 376 315 0
 -378 -377 324 0
 378 -377 -324 0
 378 377 -324 0
 378 377 324 0
 -379 -378 -333 0
 -379 378 -333 0
 -379 -378 333 0
 379 378 333 0
 -380 -379 -334 381 0
 -381 380 0
 -381 379 0
 -381 334 0
 -380 379 -334 382 0
 -382 380 0
 -382 -379 0
 -382 334 0
 -380 -379 334 383 0
 -383 380 0
 -383 379 0
 -383 -334 0
 -380 379 334 384 0
 -384 380 0
 -384 -379 0
 -384 -334 0
 380 -379 -334 385 0
 -385 -380 0
 -385 379 0
 -385 334 0
 380 379 -334 386 0
 -386 -380 0
 -386 -379 0
 -386 334 0
 380 -379 334 387 0
 -387 -380 0
 -387 379 0
 -387 -334 0
 380 379 334 388 0
 -388 -380 0
 -388 -379 0
 -388 -334 0
 -389 -380 -343 390 0
 -390 389 0
 -390 380 0
 -390 343 0
 -389 380 -343 391 0
 -391 389 0
 -391 -380 0
 -391 343 0
 -389 -380 343 392 0
 -392 389 0
 -392 380 0
 -392 -343 0
 -389 380 343 393 0
 -393 389 0
 -393 -380 0
 -393 -343 0
 389 -380 -343 394 0
 -394 -389 0
 -394 380 0
 -394 343 0
 389 380 -343 395 0
 -395 -389 0
 -395 -380 0
 -395 343 0
 389 -380 343 396 0
 -396 -389 0
 -396 380 0
 -396 -343 0
 389 380 343 397 0
 -397 -389 0
 -397 -380 0
 -397 -343 0
 -398 -389 -352 0
 -398 389 -352 0
 -398 389 352 0
 398 -389 352 0
 -399 -361 400 0
 -400 399 0
 -400 361 0
 -399 361 401 0
 -401 399 0
 -401 -361 0
 399 -361 402 0
 -402 -399 0
 -402 361 0
 399 361 403 0
 -403 -399 0
 -403 -361 0
 -404 -399 -366 0
 -404 -399 366 0
 404 399 -366 0
 404 399 366 0
 -405 -404 -367 406 0
 -406 405 0
 -406 404 0
 -406 367 0
 -405 404 -367 407 0
 -407 405 0
 -407 -404 0
 -407 367 0
 -405 -404 367 408 0
 -408 405 0
 -408 404 0
 -408 -367 0
 -405 404 367 409 0
 -409 405 0
 -409 -404 0
 -409 -367 0
 405 -404 -367 410 0
 -410 -405 0
 -410 404 0
 -410 367 0
 405 404 -367 411 0
 -411 -405 0
 -411 -404 0
 -411 367 0
 405 -404 367 412 0
 -412 -405 0
 -412 404 0
 -412 -367 0
 405 404 367 413 0
 -413 -405 0
 -413 -404 0
 -413 -367 0
 -414 -405 -376 415 0
 -415 414 0
 -415 405 0
 -415 376 0
 -414 405 -376 416 0
 -416 414 0
 -416 -405 0
 -416 376 0
 -414 -405 376 417 0
 -417 414 0
 -417 405 0
 -417 -376 0
 -414 405 376 418 0
 -418 414 0
 -418 -405 0
 -418 -376 0
 414 -405 -376 419 0
 -419 -414 0
 -419 405 0
 -419 376 0
 414 405 -376 420 0
 -420 -414 0
 -420 -405 0
 -420 376 0
 414 -405 376 421 0
 -421 -414 0
 -421 405 0
 -421 -376 0
 414 405 376 422 0
 -422 -414 0
 -422 -405 0
 -422 -376 0
 -423 -414 -377 424 0
 -424 423 0
 -424 414 0
 -424 377 0
 -423 414 -377 425 0
 -425 423 0
 -425 -414 0
 -425 377 0
 -423 -414 377 426 0
 -426 423 0
 -426 414 0
 -426 -377 0
 -423 414 377 427 0
 -427 423 0
 -427 -414 0
 -427 -377 0
 423 -414 -377 428 0
 -428 -423 0
 -428 414 0
 -428 377 0
 423 414 -377 429 0
 -429 -423 0
 -429 -414 0
 -429 377 0
 423 -414 377 430 0
 -430 -423 0
 -430 414 0
 -430 -377 0
 423 414 377 431 0
 -431 -423 0
 -431 -414 0
 -431 -377 0
 -432 -423 -378 433 0
 -433 432 0
 -433 423 0
 -433 378 0
 -432 423 -378 434 0
 -434 432 0
 -434 -423 0
 -434 378 0
 -432 -423 378 435 0
 -435 432 0
 -435 423 0
 -435 -378 0
 -432 423 378 436 0
 -436 432 0
 -436 -423 0
 -436 -378 0
 432 -423 -378 437 0
 -437 -432 0
 -437 423 0
 -437 378 0
 432 423 -378 438 0
 -438 -432 0
 -438 -423 0
 -438 378 0
 432 -423 378 439 0
 -439 -432 0
 -439 423 0
 -439 -378 0
 432 423 378 440 0
 -440 -432 0
 -440 -423 0
 -440 -378 0
 -441 -432 -379 442 0
 -442 441 0
 -442 432 0
 -442 379 0
 -441 432 -379 443 0
 -443 441 0
 -443 -432 0
 -443 379 0
 -441 -432 379 444 0
 -444 441 0
 -444 432 0
 -444 -379 0
 -441 432 379 445 0
 -445 441 0
 -445 -432 0
 -445 -379 0
 441 -432 -379 446 0
 -446 -441 0
 -446 432 0
 -446 379 0
 441 432 -379 447 0
 -447 -441 0
 -447 -432 0
 -447 379 0
 441 -432 379 448 0
 -448 -441 0
 -448 432 0
 -448 -379 0
 441 432 379 449 0
 -449 -441 0
 -449 -432 0
 -449 -379 0
 -450 -441 -380 0
 -450 -441 380 0
 -450 441 380 0
 450 441 -380 0
 -451 -450 -389 0
 -451 450 389 0
 451 450 -389 0
 451 -450 389 0
 -452 -451 -398 453 0
 -453 452 0
 -453 451 0
 -453 398 0
 -452 451 -398 454 0
 -454 452 0
 -454 -451 0
 -454 398 0
 -452 -451 398 455 0
 -455 452 0
 -455 451 0
 -455 -398 0
 -452 451 398 456 0
 -456 452 0
 -456 -451 0
 -456 -398 0
 452 -451 -398 457 0
 -457 -452 0
 -457 451 0
 -457 398 0
 452 451 -398 458 0
 -458 -452 0
 -458 -451 0
 -458 398 0
 452 -451 398 459 0
 -459 -452 0
 -459 451 0
 -459 -398 0
 452 451 398 460 0
 -460 -452 0
 -460 -451 0
 -460 -398 0
 -461 399 0
 461 -399 0
 -462 -461 -404 463 0
 -463 462 0
 -463 461 0
 -463 404 0
 -462 461 -404 464 0
 -464 462 0
 -464 -461 0
 -464 404 0
 -462 -461 404 465 0
 -465 462 0
 -465 461 0
 -465 -404 0
 -462 461 404 466 0
 -466 462 0
 -466 -461 0
 -466 -404 0
 462 -461 -404 467 0
 -467 -462 0
 -467 461 0
 -467 404 0
 462 461 -404 468 0
 -468 -462 0
 -468 -461 0
 -468 404 0
 462 -461 404 469 0
 -469 -462 0
 -469 461 0
 -469 -404 0
 462 461 404 470 0
 -470 -462 0
 -470 -461 0
 -470 -404 0
 -471 462 -405 0
 -471 -462 405 0
 471 -462 -405 0
 471 462 405 0
 -472 471 -414 0
 -472 -471 414 0
 -472 471 414 0
 472 -471 -414 0
 -473 -472 -423 474 0
 -474 473 0
 -474 472 0
 -474 423 0
 -473 472 -423 475 0
 -475 473 0
 -475 -472 0
 -475 423 0
 -473 -472 423 476 0
 -476 473 0
 -476 472 0
 -476 -423 0
 -473 472 423 477 0
 -477 473 0
 -477 -472 0
 -477 -423 0
 473 -472 -423 478 0
 -478 -473 0
 -478 472 0
 -478 423 0
 473 472 -423 479 0
 -479 -473 0
 -479 -472 0
 -479 423 0
 473 -472 423 480 0
 -480 -473 0
 -480 472 0
 -480 -423 0
 473 472 423 481 0
 -481 -473 0
 -481 -472 0
 -481 -423 0
 -482 -473 -432 0
 -482 473 -432 0
 -482 -473 432 0
 482 473 432 0
 -483 -482 -441 0
 -483 482 441 0
 483 482 -441 0
 483 -482 441 0
 -484 -483 450 0
 484 -483 -450 0
 484 483 -450 0
 484 483 450 0
 -485 -484 -451 0
 -485 484 -451 0
 -485 -484 451 0
 485 484 451 0
 -486 -485 -452 487 0
 -487 486 0
 -487 485 0
 -487 452 0
 -486 485 -452 488 0
 -488 486 0
 -488 -485 0
 -488 452 0
 -486 -485 452 489 0
 -489 486 0
 -489 485 0
 -489 -452 0
 -486 485 452 490 0
 -490 486 0
 -490 -485 0
 -490 -452 0
 486 -485 -452 491 0
 -491 -486 0
 -491 485 0
 -491 452 0
 486 485 -452 492 0
 -492 -486 0
 -492 -485 0
 -492 452 0
 486 -485 452 493 0
 -493 -486 0
 -493 485 0
 -493 -452 0
 486 485 452 494 0
 -494 -486 0
 -494 -485 0
 -494 -452 0
